Optimizer called with the following parameters:
{'focal_plane_mask': {'field_stop_radius': None,
                      'grayscale': True,
                      'num_pix': 150,
                      'radius': 3.9000000000000004},
 'image': {'bandwidth': 0.2,
           'contrast': 10,
           'iwa': 3.8000000000000003,
           'num_wavelengths': 5,
           'owa': 14.0,
           'resolution': 2},
 'instrument': {'inst_name': 'USORT'},
 'lyot_stop': {'alignment_tolerance': 0,
               'filename': 'USORT/LS_USORT_circ_ID0000_OD0990_ovsamp16_N0128.fits',
               'num_lyot_stops': 1},
 'method': {'edge_width_for_prior': 2,
            'ending_scale': 1,
            'force_no_hermitian_symmetry': False,
            'force_no_x_mirror_symmetry': False,
            'force_no_y_mirror_symmetry': False,
            'initial_throughput_estimate': 1,
            'maximize_planet_throughput': True,
            'num_throughput_iterations': 2,
            'starting_scale': 1},
 'pupil': {'N': 128,
           'filename': 'USORT/TelAp_USORT_offaxis_ovsamp16_N0128.fits'},
 'solver': {'crossover': 0,
            'method': 2,
            'num_threads': 0}}

File organization:
{'analysis_dir': '/user/bnickson/GitHub/LUVex_TelAps/aplc_optimization/surveys/usort_offaxis_survey_N0128_telserv3/FPM39_IWA38/analysis',
 'drivers_dir': '/user/bnickson/GitHub/LUVex_TelAps/aplc_optimization/surveys/usort_offaxis_survey_N0128_telserv3/FPM39_IWA38/drivers',
 'input_files_dir': '/user/bnickson/GitHub/LUVex_TelAps/aplc_optimization/masks',
 'log_dir': '/user/bnickson/GitHub/LUVex_TelAps/aplc_optimization/surveys/usort_offaxis_survey_N0128_telserv3/FPM39_IWA38/logs',
 'solution_dir': '/user/bnickson/GitHub/LUVex_TelAps/aplc_optimization/surveys/usort_offaxis_survey_N0128_telserv3/FPM39_IWA38/solutions',
 'survey_dir': '/user/bnickson/GitHub/LUVex_TelAps/aplc_optimization/surveys/usort_offaxis_survey_N0128_telserv3/FPM39_IWA38'}

Telescope pupil:
   Mirror symmetry in x: yes
   Mirror symmetry in y: yes

Lyot stop #0:
   Mirror symmetry in x: yes
Lyot stop #0:
   Mirror symmetry in y: yes

Complete APLC:
   Mirror symmetry in x: yes
   Mirror symmetry in y: yes

Starting optimization at scale 1 with 2726 variables and 2865 constraints.
Creating model...
Set parameter Username
Academic license - for non-commercial use only - expires 2024-10-25
Set parameter Crossover to value 0
Set parameter Method to value 2
Calculating and adding constraints...
Wavelength 1/5; Variable 1000/2726
Wavelength 1/5; Variable 2000/2726
Wavelength 2/5; Variable 1000/2726
Wavelength 2/5; Variable 2000/2726
Wavelength 3/5; Variable 1000/2726
Wavelength 3/5; Variable 2000/2726
Wavelength 4/5; Variable 1000/2726
Wavelength 4/5; Variable 2000/2726
Wavelength 5/5; Variable 1000/2726
Wavelength 5/5; Variable 2000/2726
Start optimization...
Gurobi Optimizer version 10.0.3 build v10.0.3rc0 (linux64)

CPU model: Intel(R) Xeon(R) Gold 6146 CPU @ 3.20GHz, instruction set [SSE2|AVX|AVX2|AVX512]
Thread count: 24 physical cores, 48 logical processors, using up to 24 threads

Optimize a model with 5730 rows, 2726 columns and 15619980 nonzeros
Model fingerprint: 0x54ff2df5
Coefficient statistics:
  Matrix range     [9e-13, 5e-04]
  Objective range  [2e-03, 1e+00]
  Bounds range     [1e+00, 1e+00]
  RHS range        [1e-05, 1e-05]
Presolve removed 0 rows and 0 columns (presolve time = 6s) ...
Presolve time: 7.28s
Presolved: 2726 rows, 8456 columns, 15622706 nonzeros
Error: invalid user locale; possible fix is to set the system environment
       variable 'LC_ALL' to a valid locale (e.g., to 'C')
Ordering time: 0.06s

Barrier statistics:
 AA' NZ     : 3.714e+06
 Factor NZ  : 3.717e+06 (roughly 34 MB of memory)
 Factor Ops : 6.756e+09 (less than 1 second per iteration)
 Threads    : 24

                  Objective                Residual
Iter       Primal          Dual         Primal    Dual     Compl     Time
   0   5.64586341e+03  0.00000000e+00  0.00e+00 0.00e+00  9.83e-01    10s
   1   2.71028578e+03  8.53703157e+02  0.00e+00 8.62e-02  2.46e-01    11s
   2   2.17288779e+03  1.11938126e+03  0.00e+00 5.72e-02  1.40e-01    12s
   3   1.85742646e+03  1.22836337e+03  0.00e+00 4.49e-02  8.95e-02    12s
   4   1.69543036e+03  1.27254615e+03  0.00e+00 3.61e-02  6.74e-02    14s
   5   1.56352518e+03  1.30960820e+03  0.00e+00 2.73e-02  4.75e-02    16s
   6   1.50810315e+03  1.32032938e+03  0.00e+00 2.17e-02  3.79e-02    19s
   7   1.44751467e+03  1.31864262e+03  0.00e+00 1.78e-02  3.01e-02    21s
   8   1.40003232e+03  1.31078288e+03  0.00e+00 1.64e-02  2.62e-02    23s
   9   1.36488324e+03  1.29989200e+03  0.00e+00 1.37e-02  2.19e-02    25s
  10   1.33034087e+03  1.28820594e+03  0.00e+00 1.21e-02  1.87e-02    26s
  11   1.30011937e+03  1.28130132e+03  0.00e+00 1.12e-02  1.62e-02    29s
  12   1.26624175e+03  1.26263422e+03  0.00e+00 8.89e-03  1.24e-02    32s
  13   1.25324493e+03  1.25568467e+03  0.00e+00 7.98e-03  1.09e-02    35s
  14   1.24717315e+03  1.25077876e+03  0.00e+00 7.43e-03  1.01e-02    37s
  15   1.22585929e+03  1.24326991e+03  0.00e+00 6.70e-03  8.20e-03    39s
  16   1.21871445e+03  1.23797281e+03  0.00e+00 6.21e-03  7.49e-03    41s
  17   1.21280848e+03  1.23493722e+03  0.00e+00 5.89e-03  6.91e-03    43s
  18   1.20215113e+03  1.22542775e+03  0.00e+00 5.04e-03  5.77e-03    45s
  19   1.19284748e+03  1.22161935e+03  0.00e+00 4.74e-03  5.00e-03    47s
  20   1.18200602e+03  1.21052947e+03  0.00e+00 3.82e-03  3.78e-03    49s
  21   1.17970097e+03  1.19884202e+03  0.00e+00 2.90e-03  3.11e-03    51s
  22   1.17603798e+03  1.19728677e+03  0.00e+00 2.79e-03  2.82e-03    53s
  23   1.17063060e+03  1.19228763e+03  0.00e+00 2.45e-03  2.29e-03    55s
  24   1.16584009e+03  1.18480372e+03  0.00e+00 1.92e-03  1.71e-03    57s
  25   1.16280029e+03  1.17944369e+03  0.00e+00 1.57e-03  1.36e-03    60s
  26   1.16117709e+03  1.17646800e+03  0.00e+00 1.38e-03  1.19e-03    62s
  27   1.15955180e+03  1.17009040e+03  0.00e+00 9.83e-04  9.13e-04    64s
  28   1.15760420e+03  1.16860102e+03  0.00e+00 8.90e-04  7.14e-04    65s
  29   1.15685145e+03  1.16482164e+03  0.00e+00 6.50e-04  5.22e-04    68s
  30   1.15553962e+03  1.16230606e+03  0.00e+00 5.04e-04  3.80e-04    70s
  31   1.15512811e+03  1.16165701e+03  0.00e+00 4.66e-04  3.36e-04    71s
  32   1.15456449e+03  1.15974510e+03  0.00e+00 3.58e-04  2.50e-04    73s
  33   1.15431840e+03  1.15883088e+03  0.00e+00 3.06e-04  2.08e-04    75s
  34   1.15406753e+03  1.15697466e+03  0.00e+00 1.99e-04  1.40e-04    77s
  35   1.15388093e+03  1.15548338e+03  6.08e-08 1.13e-04  8.40e-05    79s
  36   1.15364739e+03  1.15459029e+03  6.68e-06 6.15e-05  3.98e-05    82s
  37   1.15357765e+03  1.15415218e+03  1.65e-05 3.62e-05  2.16e-05    84s
  38   1.15355706e+03  1.15381767e+03  1.51e-05 1.68e-05  1.05e-05    86s
  39   1.15355052e+03  1.15366919e+03  1.65e-05 8.15e-06  5.83e-06    89s
  40   1.15354867e+03  1.15361510e+03  1.46e-05 4.98e-06  4.10e-06    93s
  41   1.15354674e+03  1.15356848e+03  3.61e-05 2.28e-06  2.63e-06    96s
  42   1.15354416e+03  1.15356082e+03  3.26e-05 1.83e-06  2.17e-06    99s
  43   1.15354376e+03  1.15355604e+03  4.88e-05 1.54e-06  2.00e-06   102s
  44   1.15354179e+03  1.15355403e+03  8.24e-05 1.43e-06  1.70e-06   106s
  45   1.15354081e+03  1.15354992e+03  6.32e-05 1.19e-06  1.49e-06   109s
  46   1.15354022e+03  1.15354901e+03  6.69e-05 1.13e-06  1.44e-06   112s
  47   1.15353886e+03  1.15354446e+03  6.95e-05 8.65e-07  1.20e-06   114s
  48   1.15353831e+03  1.15354240e+03  7.42e-05 7.44e-07  1.10e-06   117s
  49   1.15353818e+03  1.15354087e+03  7.33e-05 6.55e-07  1.05e-06   122s
  50   1.15353772e+03  1.15354087e+03  8.59e-05 6.55e-07  1.05e-06   126s
  51   1.15353765e+03  1.15354080e+03  7.66e-05 6.51e-07  1.03e-06   131s
  52   1.15353764e+03  1.15354072e+03  7.24e-05 6.46e-07  9.69e-07   135s
  53   1.15353813e+03  1.15354070e+03  1.06e-04 6.45e-07  9.66e-07   138s
  54   1.15353801e+03  1.15354068e+03  1.18e-04 6.44e-07  9.60e-07   143s
  55   1.15353912e+03  1.15353932e+03  2.14e-04 5.78e-07  8.63e-07   147s
  56   1.15353361e+03  1.15353452e+03  3.00e-04 2.90e-07  4.27e-07   152s
  57   1.15353238e+03  1.15353431e+03  3.59e-04 2.78e-07  3.79e-07   158s
  58   1.15353199e+03  1.15353335e+03  3.25e-04 2.19e-07  3.33e-07   163s
  59   1.15353179e+03  1.15353293e+03  3.04e-04 1.94e-07  3.07e-07   171s
  60   1.15353195e+03  1.15353287e+03  3.72e-04 1.90e-07  2.98e-07   176s
  61   1.15353085e+03  1.15353244e+03  3.31e-04 1.64e-07  2.61e-07   182s
  62   1.15353057e+03  1.15353244e+03  3.17e-04 1.64e-07  2.61e-07   186s
  63   1.15353055e+03  1.15353213e+03  2.75e-04 1.46e-07  2.38e-07   189s
  64   1.15353080e+03  1.15353199e+03  2.71e-04 1.37e-07  2.30e-07   190s
  65   1.15353076e+03  1.15353189e+03  2.58e-04 1.31e-07  2.16e-07   191s
  66   1.15353073e+03  1.15353190e+03  2.57e-04 1.31e-07  2.16e-07   192s
  67   1.15353066e+03  1.15353181e+03  2.30e-04 1.26e-07  1.81e-07   194s
  68   1.15353032e+03  1.15353181e+03  2.60e-04 1.26e-07  1.80e-07   195s
  69   1.15353101e+03  1.15353133e+03  2.30e-04 1.00e-07  1.61e-07   196s
  70   1.15353069e+03  1.15353126e+03  2.70e-04 9.57e-08  1.49e-07   197s
  71   1.15353008e+03  1.15353124e+03  2.89e-04 9.41e-08  1.43e-07   198s
  72   1.15352940e+03  1.15353102e+03  2.53e-04 8.08e-08  1.31e-07   199s
  73   1.15352935e+03  1.15353102e+03  2.41e-04 8.08e-08  1.31e-07   201s
  74   1.15352955e+03  1.15353102e+03  2.40e-04 8.08e-08  1.31e-07   202s
  75   1.15352962e+03  1.15353030e+03  2.30e-04 3.77e-08  1.02e-07   204s
  76   1.15352953e+03  1.15353017e+03  1.80e-04 2.95e-08  6.78e-08   205s
  77   1.15352957e+03  1.15353009e+03  1.71e-04 2.42e-08  6.31e-08   208s
  78   1.15352921e+03  1.15353009e+03  2.14e-04 2.42e-08  6.29e-08   209s
  79   1.15352909e+03  1.15353008e+03  2.11e-04 2.32e-08  6.08e-08   210s
  80   1.15352910e+03  1.15353007e+03  2.43e-04 2.26e-08  5.89e-08   211s
  81   1.15352902e+03  1.15353001e+03  1.84e-04 1.91e-08  5.39e-08   212s
  82   1.15352881e+03  1.15353001e+03  1.69e-04 1.88e-08  4.98e-08   213s
  83   1.15352855e+03  1.15352999e+03  2.07e-04 1.77e-08  4.28e-08   214s
  84   1.15352874e+03  1.15352998e+03  1.94e-04 1.71e-08  3.87e-08   215s
  85   1.15352790e+03  1.15352997e+03  1.66e-04 1.65e-08  3.30e-08   216s
  86   1.15352791e+03  1.15352997e+03  1.67e-04 1.65e-08  3.28e-08   217s
  87   1.15352825e+03  1.15352997e+03  1.60e-04 1.63e-08  3.02e-08   217s
  88   1.15352878e+03  1.15352997e+03  1.60e-04 1.60e-08  2.71e-08   218s
  89   1.15352921e+03  1.15352995e+03  1.28e-04 1.48e-08  2.27e-08   219s
  90   1.15352920e+03  1.15352992e+03  1.26e-04 1.27e-08  2.14e-08   220s
  91   1.15352902e+03  1.15352990e+03  1.46e-04 1.15e-08  1.72e-08   221s
  92   1.15352931e+03  1.15352988e+03  1.28e-04 1.06e-08  1.57e-08   222s
  93   1.15352925e+03  1.15352988e+03  1.19e-04 1.05e-08  1.56e-08   223s
  94   1.15352899e+03  1.15352986e+03  1.22e-04 8.96e-09  1.44e-08   224s
  95   1.15352885e+03  1.15352985e+03  1.27e-04 8.58e-09  1.38e-08   225s
  96   1.15352888e+03  1.15352985e+03  1.25e-04 8.19e-09  1.36e-08   226s
  97   1.15352856e+03  1.15352984e+03  1.31e-04 7.91e-09  1.27e-08   227s
  98   1.15352878e+03  1.15352984e+03  1.26e-04 7.73e-09  1.22e-08   227s
  99   1.15352858e+03  1.15352983e+03  1.17e-04 7.50e-09  1.17e-08   228s
 100   1.15352853e+03  1.15352983e+03  1.16e-04 7.49e-09  1.16e-08   229s
 101   1.15352850e+03  1.15352983e+03  1.19e-04 7.49e-09  1.16e-08   230s
 102   1.15352854e+03  1.15352982e+03  1.38e-04 6.85e-09  1.07e-08   231s
 103   1.15352864e+03  1.15352981e+03  1.30e-04 6.16e-09  9.91e-09   233s
 104   1.15352855e+03  1.15352981e+03  1.19e-04 6.07e-09  9.53e-09   234s
 105   1.15352857e+03  1.15352981e+03  1.19e-04 5.88e-09  9.39e-09   236s
 106   1.15352938e+03  1.15352979e+03  1.75e-04 4.82e-09  6.20e-09   238s
 107   1.15352895e+03  1.15352979e+03  1.58e-04 4.71e-09  5.96e-09   239s
 108   1.15352914e+03  1.15352978e+03  1.44e-04 4.03e-09  5.09e-09   241s
 109   1.15352916e+03  1.15352978e+03  1.39e-04 3.96e-09  5.00e-09   244s
 110   1.15352940e+03  1.15352976e+03  1.23e-04 2.77e-09  4.05e-09   247s
 111   1.15352939e+03  1.15352975e+03  1.26e-04 2.40e-09  3.76e-09   249s
 112   1.15352950e+03  1.15352975e+03  1.06e-04 2.32e-09  3.28e-09   253s
 113   1.15352951e+03  1.15352975e+03  8.93e-05 2.32e-09  3.28e-09   255s
 114   1.15352934e+03  1.15352975e+03  1.07e-04 2.26e-09  3.04e-09   257s
 115   1.15352937e+03  1.15352975e+03  1.11e-04 2.25e-09  3.00e-09   259s
 116   1.15352937e+03  1.15352975e+03  1.19e-04 2.25e-09  3.00e-09   262s
 117   1.15352925e+03  1.15352973e+03  9.49e-05 1.35e-09  2.35e-09   267s
 118   1.15352894e+03  1.15352973e+03  1.14e-04 1.07e-09  2.06e-09   269s
 119   1.15352915e+03  1.15352973e+03  1.41e-04 1.06e-09  2.04e-09   272s
 120   1.15352914e+03  1.15352973e+03  1.37e-04 1.06e-09  2.01e-09   275s
 121   1.15352937e+03  1.15352972e+03  1.47e-04 8.79e-10  1.62e-09   280s
 122   1.15352933e+03  1.15352972e+03  1.62e-04 8.27e-10  1.56e-09   283s
 123   1.15352937e+03  1.15352972e+03  1.29e-04 5.14e-10  1.14e-09   287s
 124   1.15352936e+03  1.15352972e+03  1.31e-04 5.14e-10  1.14e-09   289s
 125   1.15352937e+03  1.15352972e+03  1.31e-04 5.13e-10  1.14e-09   291s
 126   1.15352991e+03  1.15352972e+03  1.53e-04 4.55e-10  1.09e-09   295s
 127   1.15353033e+03  1.15352972e+03  1.36e-04 3.82e-10  8.29e-10   297s
 128   1.15353001e+03  1.15352971e+03  1.67e-04 3.16e-10  8.99e-10   304s
 129   1.15353000e+03  1.15352971e+03  1.59e-04 3.06e-10  8.59e-10   306s
 130   1.15353023e+03  1.15352971e+03  1.67e-04 2.99e-10  8.31e-10   309s
 131   1.15353030e+03  1.15352970e+03  1.69e-04 2.99e-10  8.31e-10   312s
 132   1.15353031e+03  1.15352970e+03  1.94e-04 2.75e-10  7.88e-10   315s
 133   1.15353013e+03  1.15352970e+03  1.82e-04 2.73e-10  7.36e-10   318s
 134   1.15352996e+03  1.15352970e+03  1.56e-04 2.69e-10  7.53e-10   321s
 135   1.15352996e+03  1.15352970e+03  1.54e-04 2.68e-10  7.49e-10   323s
 136   1.15353052e+03  1.15352970e+03  1.33e-04 2.66e-10  7.34e-10   326s
 137   1.15353069e+03  1.15352970e+03  1.34e-04 2.66e-10  7.24e-10   328s
 138   1.15353066e+03  1.15352970e+03  1.39e-04 2.66e-10  7.23e-10   330s
 139   1.15353063e+03  1.15352970e+03  1.39e-04 2.65e-10  7.19e-10   332s
 140   1.15353046e+03  1.15352970e+03  1.32e-04 2.44e-10  6.70e-10   335s
 141   1.15353040e+03  1.15352970e+03  1.26e-04 2.07e-10  6.32e-10   338s
 142   1.15353030e+03  1.15352970e+03  1.17e-04 2.04e-10  6.24e-10   339s
 143   1.15353034e+03  1.15352970e+03  1.16e-04 2.04e-10  6.23e-10   341s
 144   1.15353033e+03  1.15352970e+03  1.15e-04 2.04e-10  6.23e-10   343s
 145   1.15352984e+03  1.15352970e+03  2.18e-04 1.95e-10  5.39e-10   344s
 146   1.15352981e+03  1.15352970e+03  2.06e-04 1.79e-10  5.16e-10   345s
 147   1.15353050e+03  1.15352970e+03  1.80e-04 1.45e-10  4.29e-10   348s
 148   1.15353048e+03  1.15352970e+03  1.78e-04 1.32e-10  4.05e-10   349s
 149   1.15353045e+03  1.15352970e+03  1.76e-04 1.15e-10  3.75e-10   350s
 150   1.15353044e+03  1.15352970e+03  1.76e-04 1.15e-10  3.73e-10   352s
 151   1.15352996e+03  1.15352970e+03  1.82e-04 1.11e-10  3.35e-10   353s
 152   1.15352973e+03  1.15352970e+03  2.28e-04 1.09e-10  3.28e-10   354s
 153   1.15352970e+03  1.15352970e+03  2.28e-04 1.07e-10  3.23e-10   355s
 154   1.15352984e+03  1.15352970e+03  1.96e-04 1.02e-10  3.04e-10   356s
 155   1.15352994e+03  1.15352970e+03  1.90e-04 1.02e-10  3.01e-10   356s
 156   1.15352995e+03  1.15352970e+03  1.91e-04 1.02e-10  3.00e-10   357s
 157   1.15352992e+03  1.15352970e+03  1.85e-04 1.01e-10  2.94e-10   359s
 158   1.15352944e+03  1.15352970e+03  1.70e-04 9.13e-11  2.70e-10   360s
 159   1.15352999e+03  1.15352970e+03  1.35e-04 8.58e-11  2.20e-10   361s
 160   1.15353007e+03  1.15352970e+03  1.32e-04 6.89e-11  2.09e-10   363s
 161   1.15353023e+03  1.15352970e+03  1.45e-04 6.82e-11  2.03e-10   365s
 162   1.15353011e+03  1.15352970e+03  1.27e-04 6.66e-11  1.93e-10   366s
 163   1.15353007e+03  1.15352970e+03  1.28e-04 6.63e-11  1.95e-10   368s
 164   1.15353009e+03  1.15352970e+03  1.42e-04 5.67e-11  1.85e-10   369s
 165   1.15353001e+03  1.15352970e+03  1.34e-04 5.51e-11  1.82e-10   370s
 166   1.15353004e+03  1.15352970e+03  1.30e-04 5.35e-11  1.77e-10   371s
 167   1.15353005e+03  1.15352970e+03  1.29e-04 4.97e-11  1.76e-10   372s
 168   1.15352882e+03  1.15352970e+03  1.60e-04 4.04e-11  1.42e-10   373s
 169   1.15352894e+03  1.15352970e+03  1.83e-04 3.36e-11  1.34e-10   374s
 170   1.15352901e+03  1.15352970e+03  1.96e-04 2.93e-11  1.27e-10   375s
 171   1.15352905e+03  1.15352970e+03  1.98e-04 2.45e-11  1.03e-10   376s
 172   1.15352905e+03  1.15352970e+03  1.98e-04 2.20e-11  9.97e-11   377s

Barrier performed 172 iterations in 376.87 seconds (120.10 work units)
Sub-optimal termination - objective 1.15354674e+03

Optimization finished!
Restarting optimization for throughput iteration 1...
Gurobi Optimizer version 10.0.3 build v10.0.3rc0 (linux64)

CPU model: Intel(R) Xeon(R) Gold 6146 CPU @ 3.20GHz, instruction set [SSE2|AVX|AVX2|AVX512]
Thread count: 24 physical cores, 48 logical processors, using up to 24 threads

Optimize a model with 5730 rows, 2726 columns and 15619980 nonzeros
Model fingerprint: 0xe2ec46dd
Coefficient statistics:
  Matrix range     [9e-13, 5e-04]
  Objective range  [2e-03, 1e+00]
  Bounds range     [1e+00, 1e+00]
  RHS range        [5e-06, 5e-06]
Presolve removed 0 rows and 0 columns (presolve time = 5s) ...
Presolve time: 9.31s
Presolved: 2726 rows, 8456 columns, 15622706 nonzeros
Ordering time: 0.10s

Barrier statistics:
 AA' NZ     : 3.714e+06
 Factor NZ  : 3.717e+06 (roughly 34 MB of memory)
 Factor Ops : 6.756e+09 (less than 1 second per iteration)
 Threads    : 24

                  Objective                Residual
Iter       Primal          Dual         Primal    Dual     Compl     Time
   0   5.57067144e+03  0.00000000e+00  0.00e+00 0.00e+00  9.74e-01    15s
   1   2.63602280e+03  8.38804392e+02  0.00e+00 9.00e-02  2.47e-01    17s
   2   2.10642834e+03  1.09099338e+03  0.00e+00 6.53e-02  1.47e-01    20s
   3   1.77948183e+03  1.16209099e+03  0.00e+00 5.50e-02  1.03e-01    24s
   4   1.59523289e+03  1.21882512e+03  0.00e+00 4.39e-02  7.78e-02    27s
   5   1.47012377e+03  1.25167607e+03  0.00e+00 3.51e-02  5.93e-02    28s
   6   1.42013220e+03  1.25965824e+03  0.00e+00 2.99e-02  5.03e-02    31s
   7   1.34456011e+03  1.25904411e+03  0.00e+00 2.40e-02  3.92e-02    34s
   8   1.26680087e+03  1.24183285e+03  0.00e+00 2.09e-02  3.25e-02    37s
   9   1.22263262e+03  1.22129270e+03  0.00e+00 1.82e-02  2.80e-02    39s
  10   1.19864518e+03  1.21681922e+03  0.00e+00 1.75e-02  2.60e-02    41s
  11   1.16091684e+03  1.20145313e+03  0.00e+00 1.57e-02  2.28e-02    44s
  12   1.11411896e+03  1.18777924e+03  0.00e+00 1.43e-02  1.86e-02    47s
  13   1.11149168e+03  1.17437097e+03  0.00e+00 1.29e-02  1.71e-02    50s
  14   1.09109922e+03  1.14860158e+03  0.00e+00 1.07e-02  1.45e-02    52s
  15   1.07142175e+03  1.13948039e+03  0.00e+00 9.94e-03  1.26e-02    55s
  16   1.06643309e+03  1.12837909e+03  0.00e+00 9.16e-03  1.18e-02    57s
  17   1.05778018e+03  1.12289312e+03  0.00e+00 8.72e-03  1.10e-02    59s
  18   1.04007967e+03  1.09481548e+03  0.00e+00 6.58e-03  8.25e-03    62s
  19   1.03230557e+03  1.09093348e+03  0.00e+00 6.30e-03  7.61e-03    65s
  20   1.02315316e+03  1.07792479e+03  0.00e+00 5.45e-03  6.53e-03    67s
  21   1.01563838e+03  1.05895394e+03  0.00e+00 4.23e-03  5.27e-03    70s
  22   1.01062203e+03  1.05753644e+03  0.00e+00 4.15e-03  4.89e-03    72s
  23   1.00622842e+03  1.05011685e+03  0.00e+00 3.73e-03  4.33e-03    74s
  24   1.00320929e+03  1.04107451e+03  0.00e+00 3.24e-03  3.79e-03    79s
  25   1.00205675e+03  1.03761452e+03  0.00e+00 3.07e-03  3.64e-03    82s
  26   9.97824038e+02  1.03582886e+03  0.00e+00 2.97e-03  3.26e-03    83s
  27   9.93809286e+02  1.03145466e+03  0.00e+00 2.75e-03  2.83e-03    86s
  28   9.90550086e+02  1.02222017e+03  0.00e+00 2.27e-03  2.34e-03    88s
  29   9.89341802e+02  1.01756347e+03  0.00e+00 2.03e-03  2.10e-03    91s
  30   9.86298953e+02  1.01185231e+03  0.00e+00 1.74e-03  1.73e-03    92s
  31   9.85510024e+02  1.00992773e+03  0.00e+00 1.65e-03  1.64e-03    95s
  32   9.81654139e+02  1.00683212e+03  0.00e+00 1.51e-03  1.33e-03    98s
  33   9.79846677e+02  1.00010708e+03  0.00e+00 1.19e-03  1.04e-03   102s
  34   9.78604535e+02  9.97678229e+02  0.00e+00 1.07e-03  9.07e-04   105s
  35   9.77661998e+02  9.94964297e+02  0.00e+00 9.49e-04  7.82e-04   107s
  36   9.76914813e+02  9.94665972e+02  0.00e+00 9.36e-04  7.33e-04   109s
  37   9.76788630e+02  9.92567154e+02  0.00e+00 8.41e-04  6.78e-04   110s
  38   9.76182589e+02  9.88948724e+02  0.00e+00 6.80e-04  5.51e-04   112s
  39   9.75426110e+02  9.85856842e+02  0.00e+00 5.40e-04  4.25e-04   115s
  40   9.75070184e+02  9.84280188e+02  0.00e+00 4.72e-04  3.67e-04   118s
  41   9.74624765e+02  9.82341027e+02  0.00e+00 3.88e-04  2.92e-04   120s
  42   9.74161534e+02  9.80599199e+02  0.00e+00 3.13e-04  2.19e-04   122s
  43   9.74092814e+02  9.80470160e+02  0.00e+00 3.07e-04  2.11e-04   124s
  44   9.74052922e+02  9.80034842e+02  0.00e+00 2.88e-04  1.99e-04   127s
  45   9.73909784e+02  9.79433201e+02  0.00e+00 2.61e-04  1.75e-04   131s
  46   9.73730006e+02  9.77790058e+02  0.00e+00 1.92e-04  1.32e-04   134s
  47   9.73460738e+02  9.75888107e+02  0.00e+00 1.12e-04  7.44e-05   136s
  48   9.73401477e+02  9.74849486e+02  0.00e+00 6.89e-05  4.93e-05   138s
  49   9.73343630e+02  9.74134633e+02  0.00e+00 3.89e-05  3.04e-05   141s
  50   9.73278708e+02  9.73845702e+02  1.43e-06 2.69e-05  1.92e-05   143s
  51   9.73242382e+02  9.73532007e+02  5.06e-06 1.38e-05  9.93e-06   146s
  52   9.73213269e+02  9.73291419e+02  3.91e-06 3.72e-06  2.70e-06   150s
  53   9.73212420e+02  9.73242954e+02  6.47e-06 1.67e-06  1.62e-06   155s
  54   9.73210399e+02  9.73222819e+02  1.44e-05 8.21e-07  1.03e-06   159s
  55   9.73210369e+02  9.73222608e+02  1.35e-05 8.12e-07  1.03e-06   162s
  56   9.73209526e+02  9.73215454e+02  1.45e-05 5.10e-07  8.19e-07   167s
  57   9.73209416e+02  9.73214545e+02  1.46e-05 4.71e-07  7.27e-07   171s
  58   9.73209060e+02  9.73212778e+02  2.52e-05 3.97e-07  6.68e-07   176s
  59   9.73208006e+02  9.73209510e+02  4.93e-05 2.58e-07  5.24e-07   182s
  60   9.73207174e+02  9.73208293e+02  5.58e-05 2.06e-07  4.52e-07   188s
  61   9.73207095e+02  9.73208050e+02  6.80e-05 1.96e-07  4.40e-07   191s
  62   9.73207304e+02  9.73208049e+02  8.16e-05 1.96e-07  4.40e-07   194s
  63   9.73206901e+02  9.73206900e+02  6.94e-05 1.47e-07  3.82e-07   197s
  64   9.73206084e+02  9.73206621e+02  7.72e-05 1.35e-07  3.27e-07   198s
  65   9.73205463e+02  9.73205587e+02  9.24e-05 9.18e-08  2.42e-07   200s
  66   9.73204937e+02  9.73205462e+02  1.01e-04 8.64e-08  2.09e-07   201s
  67   9.73205351e+02  9.73205459e+02  1.17e-04 8.63e-08  2.08e-07   202s
  68   9.73204644e+02  9.73204943e+02  6.98e-05 6.43e-08  1.43e-07   204s
  69   9.73204429e+02  9.73204943e+02  7.57e-05 6.43e-08  1.43e-07   205s
  70   9.73203845e+02  9.73204661e+02  7.69e-05 5.35e-08  1.31e-07   206s
  71   9.73203856e+02  9.73204620e+02  7.80e-05 5.17e-08  1.23e-07   207s
  72   9.73203606e+02  9.73204523e+02  9.58e-05 4.75e-08  1.12e-07   209s
  73   9.73203360e+02  9.73204499e+02  1.04e-04 4.64e-08  1.01e-07   210s
  74   9.73203748e+02  9.73204443e+02  9.76e-05 4.40e-08  8.79e-08   211s
  75   9.73203800e+02  9.73204438e+02  1.11e-04 4.37e-08  8.64e-08   213s
  76   9.73203488e+02  9.73204363e+02  1.11e-04 4.04e-08  8.07e-08   213s
  77   9.73203579e+02  9.73204320e+02  1.27e-04 3.85e-08  7.77e-08   214s
  78   9.73203253e+02  9.73204316e+02  1.39e-04 3.83e-08  7.49e-08   215s
  79   9.73203245e+02  9.73203855e+02  1.29e-04 1.84e-08  5.99e-08   216s
  80   9.73203317e+02  9.73203714e+02  1.42e-04 1.21e-08  5.26e-08   218s
  81   9.73202776e+02  9.73203621e+02  1.56e-04 8.07e-09  3.51e-08   220s
  82   9.73203188e+02  9.73203620e+02  1.42e-04 8.02e-09  3.48e-08   221s
  83   9.73203241e+02  9.73203620e+02  1.43e-04 8.01e-09  3.46e-08   222s
  84   9.73203109e+02  9.73203613e+02  1.30e-04 7.73e-09  3.28e-08   223s
  85   9.73203142e+02  9.73203605e+02  1.30e-04 7.37e-09  3.16e-08   225s
  86   9.73203137e+02  9.73203603e+02  1.30e-04 7.31e-09  3.14e-08   226s
  87   9.73203126e+02  9.73203602e+02  1.24e-04 7.27e-09  3.11e-08   227s
  88   9.73203248e+02  9.73203597e+02  1.25e-04 7.04e-09  3.01e-08   229s
  89   9.73203189e+02  9.73203592e+02  1.26e-04 6.83e-09  2.95e-08   230s
  90   9.73203188e+02  9.73203591e+02  1.27e-04 6.77e-09  2.95e-08   231s
  91   9.73203125e+02  9.73203573e+02  1.03e-04 6.01e-09  2.63e-08   232s
  92   9.73203127e+02  9.73203565e+02  1.02e-04 5.71e-09  2.44e-08   233s
  93   9.73203158e+02  9.73203565e+02  1.03e-04 5.70e-09  2.44e-08   235s
  94   9.73203132e+02  9.73203559e+02  9.97e-05 5.43e-09  2.33e-08   237s
  95   9.73203129e+02  9.73203545e+02  9.76e-05 4.78e-09  2.27e-08   238s
  96   9.73203347e+02  9.73203544e+02  9.28e-05 4.75e-09  2.16e-08   239s
  97   9.73203688e+02  9.73203543e+02  1.05e-04 4.68e-09  1.95e-08   240s
  98   9.73203352e+02  9.73203520e+02  1.31e-04 3.79e-09  1.25e-08   243s
  99   9.73203600e+02  9.73203518e+02  1.56e-04 3.60e-09  1.22e-08   246s
 100   9.73203606e+02  9.73203517e+02  1.48e-04 3.55e-09  1.21e-08   250s
 101   9.73204217e+02  9.73203516e+02  1.70e-04 3.50e-09  1.18e-08   254s
 102   9.73202747e+02  9.73203496e+02  1.36e-04 2.69e-09  6.39e-09   258s
 103   9.73202935e+02  9.73203493e+02  1.11e-04 2.64e-09  5.74e-09   263s
 104   9.73203187e+02  9.73203493e+02  1.13e-04 2.63e-09  5.70e-09   267s
 105   9.73203048e+02  9.73203492e+02  1.24e-04 2.60e-09  5.01e-09   273s
 106   9.73203027e+02  9.73203486e+02  1.34e-04 2.36e-09  4.73e-09   277s
 107   9.73203276e+02  9.73203485e+02  1.20e-04 2.29e-09  4.31e-09   281s
 108   9.73203278e+02  9.73203485e+02  1.18e-04 2.29e-09  4.31e-09   286s
 109   9.73203280e+02  9.73203485e+02  1.17e-04 2.27e-09  4.31e-09   290s
 110   9.73203280e+02  9.73203440e+02  1.09e-04 3.57e-10  3.05e-09   298s
 111   9.73203225e+02  9.73203440e+02  1.11e-04 3.57e-10  3.05e-09   300s
 112   9.73202597e+02  9.73203441e+02  1.31e-04 3.38e-10  2.92e-09   301s
 113   9.73202668e+02  9.73203441e+02  1.28e-04 3.35e-10  2.78e-09   303s
 114   9.73202668e+02  9.73203440e+02  1.28e-04 3.35e-10  2.78e-09   304s
 115   9.73202417e+02  9.73203440e+02  1.32e-04 3.12e-10  2.65e-09   306s
 116   9.73202474e+02  9.73203440e+02  1.25e-04 3.02e-10  2.54e-09   308s
 117   9.73202615e+02  9.73203440e+02  1.21e-04 2.90e-10  2.44e-09   310s
 118   9.73202668e+02  9.73203441e+02  1.18e-04 2.60e-10  2.37e-09   311s
 119   9.73202542e+02  9.73203440e+02  1.09e-04 2.16e-10  2.07e-09   312s
 120   9.73202450e+02  9.73203439e+02  1.05e-04 2.09e-10  2.02e-09   313s
 121   9.73202525e+02  9.73203440e+02  1.04e-04 2.00e-10  1.89e-09   315s
 122   9.73202686e+02  9.73203440e+02  9.77e-05 1.81e-10  1.74e-09   316s
 123   9.73202649e+02  9.73203440e+02  1.01e-04 1.78e-10  1.66e-09   317s
 124   9.73202469e+02  9.73203440e+02  1.03e-04 1.68e-10  1.49e-09   318s
 125   9.73202521e+02  9.73203440e+02  9.82e-05 1.66e-10  1.45e-09   319s
 126   9.73202951e+02  9.73203439e+02  1.04e-04 1.60e-10  1.31e-09   320s
 127   9.73203230e+02  9.73203439e+02  1.05e-04 1.34e-10  1.15e-09   322s
 128   9.73203071e+02  9.73203438e+02  1.02e-04 1.24e-10  9.38e-10   323s
 129   9.73203119e+02  9.73203438e+02  1.05e-04 1.18e-10  8.84e-10   324s
 130   9.73203040e+02  9.73203438e+02  8.26e-05 1.12e-10  8.77e-10   325s
 131   9.73203189e+02  9.73203438e+02  7.79e-05 1.11e-10  8.26e-10   326s
 132   9.73203163e+02  9.73203437e+02  8.00e-05 9.58e-11  7.70e-10   327s
 133   9.73203364e+02  9.73203437e+02  1.62e-04 9.30e-11  7.37e-10   328s
 134   9.73203334e+02  9.73203438e+02  1.50e-04 6.68e-11  6.58e-10   329s
 135   9.73203627e+02  9.73203436e+02  1.35e-04 6.01e-11  5.61e-10   330s
 136   9.73203574e+02  9.73203438e+02  1.37e-04 5.60e-11  5.26e-10   332s
 137   9.73203617e+02  9.73203438e+02  1.51e-04 5.40e-11  4.99e-10   333s
 138   9.73203626e+02  9.73203438e+02  1.59e-04 5.29e-11  4.60e-10   335s
 139   9.73203355e+02  9.73203438e+02  1.38e-04 3.88e-11  4.00e-10   336s
 140   9.73203312e+02  9.73203438e+02  1.41e-04 3.74e-11  3.97e-10   337s
 141   9.73203670e+02  9.73203435e+02  1.51e-04 2.03e-11  3.21e-10   340s
 142   9.73203841e+02  9.73203435e+02  1.28e-04 1.93e-11  3.15e-10   343s
 143   9.73203836e+02  9.73203435e+02  1.27e-04 1.64e-11  3.02e-10   345s
 144   9.73203762e+02  9.73203435e+02  1.36e-04 1.48e-11  2.67e-10   347s
 145   9.73203627e+02  9.73203435e+02  1.32e-04 1.47e-11  2.53e-10   349s
 146   9.73203594e+02  9.73203435e+02  1.31e-04 1.47e-11  2.53e-10   352s
 147   9.73203572e+02  9.73203435e+02  1.18e-04 1.40e-11  2.37e-10   354s
 148   9.73202196e+02  9.73203435e+02  1.63e-04 1.33e-11  2.14e-10   359s
 149   9.73202772e+02  9.73203434e+02  1.81e-04 1.26e-11  2.72e-10   363s
 150   9.73202778e+02  9.73203434e+02  1.84e-04 7.79e-12  1.96e-10   367s
 151   9.73202757e+02  9.73203434e+02  1.59e-04 7.54e-12  1.81e-10   369s
 152   9.73202923e+02  9.73203434e+02  1.30e-04 7.45e-12  1.88e-10   372s
 153   9.73203154e+02  9.73203434e+02  1.57e-04 7.16e-12  2.50e-10   376s
 154   9.73202642e+02  9.73203434e+02  1.60e-04 6.93e-12  1.77e-10   380s
 155   9.73202473e+02  9.73203434e+02  1.25e-04 6.45e-12  1.49e-10   385s
 156   9.73203002e+02  9.73203434e+02  1.22e-04 6.44e-12  1.44e-10   388s
 157   9.73203538e+02  9.73203435e+02  1.97e-04 5.94e-12  1.28e-10   393s
 158   9.73203488e+02  9.73203434e+02  1.99e-04 7.32e-12  1.27e-10   395s
 159   9.73204045e+02  9.73203434e+02  1.80e-04 6.41e-12  1.02e-10   401s
 160   9.73204048e+02  9.73203434e+02  1.81e-04 6.39e-12  1.02e-10   403s
 161   9.73204015e+02  9.73203434e+02  1.76e-04 6.27e-12  1.02e-10   406s
 162   9.73204012e+02  9.73203434e+02  1.76e-04 6.51e-12  9.97e-11   409s
 163   9.73203885e+02  9.73203434e+02  1.80e-04 6.53e-12  1.03e-10   414s
 164   9.73203759e+02  9.73203432e+02  1.34e-04 4.96e-12  4.18e-11   423s
 165   9.73203781e+02  9.73203432e+02  1.09e-04 4.91e-12  3.00e-11   427s
 166   9.73203456e+02  9.73203432e+02  1.16e-04 4.46e-12  3.13e-11   433s
 167   9.73203463e+02  9.73203432e+02  1.19e-04 4.90e-12  3.79e-11   438s
 168   9.73203372e+02  9.73203431e+02  1.22e-04 5.80e-12  3.37e-11   443s
 169   9.73204338e+02  9.73203430e+02  1.81e-04 5.65e-12  6.08e-11   450s

Barrier performed 169 iterations in 449.70 seconds (103.07 work units)
Sub-optimal termination - objective 9.73212420e+02

/user/bnickson/GitHub/LUVex_TelAps/aplc_optimization/surveys/usort_offaxis_survey_N0128_telserv3/FPM39_IWA38/drivers/02_USORT_N128_FPM390M0150_IWA0380_OWA01400_C10_BW20_Nlam5_LS_IDc_ID0_OD_OD0_ls_90_ovsamp16_.py:102: DeprecationWarning: circular_aperture is deprecated. Its new name is make_circular_aperture.
  dark_zone_mask = circular_aperture(img_owa * 2)(focal_grid) - circular_aperture(img_iwa * 2)(focal_grid)
/user/bnickson/GitHub/LUVex_TelAps/aplc_optimization/surveys/usort_offaxis_survey_N0128_telserv3/FPM39_IWA38/drivers/02_USORT_N128_FPM390M0150_IWA0380_OWA01400_C10_BW20_Nlam5_LS_IDc_ID0_OD_OD0_ls_90_ovsamp16_.py:110: DeprecationWarning: circular_aperture is deprecated. Its new name is make_circular_aperture.
  focal_plane_mask = 1 - evaluate_supersampled(circular_aperture(2 * fpm_radius), focal_mask_grid, 8)
WARNING: VerifyWarning: Keyword name 'LS_ALIGN_TOl' is greater than 8 characters or contains characters not allowed by the FITS standard; a HIERARCH card will be created. [astropy.io.fits.card]
WARNING: VerifyWarning: Keyword name 'LS_NUM_STOPS' is greater than 8 characters or contains characters not allowed by the FITS standard; a HIERARCH card will be created. [astropy.io.fits.card]
WARNING: VerifyWarning: Keyword name 'PROG_START' is greater than 8 characters or contains characters not allowed by the FITS standard; a HIERARCH card will be created. [astropy.io.fits.card]
WARNING: VerifyWarning: Keyword name 'PROG_EDGE' is greater than 8 characters or contains characters not allowed by the FITS standard; a HIERARCH card will be created. [astropy.io.fits.card]
WARNING: VerifyWarning: Keyword name 'THRPT_ITER' is greater than 8 characters or contains characters not allowed by the FITS standard; a HIERARCH card will be created. [astropy.io.fits.card]
WARNING: VerifyWarning: Keyword name 'THRPT_ESTIM' is greater than 8 characters or contains characters not allowed by the FITS standard; a HIERARCH card will be created. [astropy.io.fits.card]
WARNING: VerifyWarning: Keyword name 'MAX_THRPT' is greater than 8 characters or contains characters not allowed by the FITS standard; a HIERARCH card will be created. [astropy.io.fits.card]
WARNING: VerifyWarning: Keyword name 'SLV_THRDS' is greater than 8 characters or contains characters not allowed by the FITS standard; a HIERARCH card will be created. [astropy.io.fits.card]
WARNING: VerifyWarning: Keyword name 'SLV_XOVER' is greater than 8 characters or contains characters not allowed by the FITS standard; a HIERARCH card will be created. [astropy.io.fits.card]
Optimization finished!
